NAME : gr48.4915.tour
COMMENT : Length = 4915
COMMENT : Found by LKH-3 [Keld Helsgaun] Sun Jan 11 02:08:36 2026
TYPE : TOUR
DIMENSION : 48
TOUR_SECTION
1
13
48
16
11
36
14
17
27
32
21
9
6
26
22
8
33
5
12
10
31
15
24
37
47
18
46
34
23
25
3
43
45
2
35
40
39
42
20
38
30
4
19
41
44
28
7
29
-1
EOF
